; benchmark generated from python API
(set-info :status unknown)
(declare-fun x_epoch () Int)
(declare-fun y_epoch () Int)
(declare-fun x_shift_period_926964_epoch () Int)
(declare-fun x_year () Int)
(declare-fun x_month () Int)
(declare-fun x_day () Int)
(declare-fun x_shift_period_926964_year () Int)
(declare-fun x_shift_period_926964_month () Int)
(declare-fun x_shift_period_926964_day () Int)
(declare-fun x_shift_period_926964_shift_period_934031_epoch () Int)
(declare-fun x_shift_period_926964_shift_period_934031_year () Int)
(declare-fun x_shift_period_926964_shift_period_934031_month () Int)
(declare-fun x_shift_period_926964_shift_period_934031_day () Int)
(assert
 (>= x_epoch (- 36584)))
(assert
 (<= x_epoch 36829))
(assert
 (>= y_epoch (- 36584)))
(assert
 (<= y_epoch 36829))
(assert
 (>= x_epoch 8492))
(assert
 (>= x_shift_period_926964_epoch (- 36584)))
(assert
 (<= x_shift_period_926964_epoch 36829))
(assert
 (let (($x3062 (<= x_year 2100)))
 (let (($x2056 (>= x_year 1900)))
 (let (($x2089 (= x_month 11)))
 (let (($x4720 (= x_month 9)))
 (let (($x4726 (= x_month 6)))
 (let (($x4696 (= x_month 4)))
 (let ((?x4717 (ite (or $x4696 $x4726 $x4720 $x2089) 30 31)))
 (let (($x4721 (= (mod x_year 4) 0)))
 (let (($x461 (= (mod x_year 100) 0)))
 (let (($x701 (= (mod x_year 400) 0)))
 (let (($x4716 (ite $x701 true (ite $x461 false $x4721))))
 (let (($x107 (= x_month 2)))
 (let ((?x196 (ite $x107 (ite $x4716 29 28) ?x4717)))
 (let (($x496 (>= x_day 1)))
 (let (($x321 (<= x_month 12)))
 (let (($x471 (>= x_month 1)))
 (and $x471 $x321 $x496 (<= x_day ?x196) $x2056 $x3062))))))))))))))))))
(assert
 (let (($x29 (or (and (= (mod 2000 4) 0) (and (distinct (mod 2000 100) 0) true)) (= (mod 2000 400) 0))))
 (let ((?x36 (ite (= 3 2) (ite $x29 31 31) (ite (= 3 1) (ite $x29 0 0) 0))))
 (let ((?x40 (ite $x29 60 59)))
 (let ((?x41 (ite (= 3 3) ?x40 ?x36)))
 (let ((?x46 (ite (= 3 4) (ite $x29 91 90) ?x41)))
 (let ((?x52 (ite (= 3 5) (ite $x29 121 120) ?x46)))
 (let ((?x58 (ite (= 3 6) (ite $x29 152 151) ?x52)))
 (let ((?x64 (ite (= 3 7) (ite $x29 182 181) ?x58)))
 (let ((?x70 (ite (= 3 8) (ite $x29 213 212) ?x64)))
 (let ((?x76 (ite (= 3 9) (ite $x29 244 243) ?x70)))
 (let ((?x82 (ite (= 3 10) (ite $x29 274 273) ?x76)))
 (let ((?x88 (ite (= 3 11) (ite $x29 305 304) ?x82)))
 (let ((?x16 (- (+ (* 365 (- 2000 1)) (div (- 2000 1) 4)) (div (- 2000 1) 100))))
 (let ((?x95 (+ (+ ?x16 (div (- 2000 1) 400)) (ite (= 3 12) (ite $x29 335 334) ?x88))))
 (let ((?x97 (+ ?x95 (- 1 1))))
 (let (($x4721 (= (mod x_year 4) 0)))
 (let (($x461 (= (mod x_year 100) 0)))
 (let (($x701 (= (mod x_year 400) 0)))
 (let (($x4716 (ite $x701 true (ite $x461 false $x4721))))
 (let (($x1147 (= 2 x_month)))
 (let ((?x432 (ite $x1147 (ite $x4716 31 31) (ite (= 1 x_month) (ite $x4716 0 0) 0))))
 (let (($x446 (= 3 x_month)))
 (let (($x934 (= 4 x_month)))
 (let ((?x4453 (ite $x934 (ite $x4716 91 90) (ite $x446 (ite $x4716 60 59) ?x432))))
 (let (($x3526 (= 5 x_month)))
 (let (($x3114 (= 6 x_month)))
 (let ((?x4161 (ite $x3114 (ite $x4716 152 151) (ite $x3526 (ite $x4716 121 120) ?x4453))))
 (let (($x3586 (= 7 x_month)))
 (let (($x3238 (= 8 x_month)))
 (let ((?x3940 (ite $x3238 (ite $x4716 213 212) (ite $x3586 (ite $x4716 182 181) ?x4161))))
 (let (($x3872 (= 9 x_month)))
 (let (($x4207 (= 10 x_month)))
 (let ((?x2066 (ite $x4207 (ite $x4716 274 273) (ite $x3872 (ite $x4716 244 243) ?x3940))))
 (let (($x2669 (= 11 x_month)))
 (let (($x3958 (= 12 x_month)))
 (let ((?x1475 (ite $x3958 (ite $x4716 335 334) (ite $x2669 (ite $x4716 305 304) ?x2066))))
 (let ((?x3270 (- (+ (* 365 (- x_year 1)) (div (- x_year 1) 4)) (div (- x_year 1) 100))))
 (let ((?x2155 (+ (+ (+ ?x3270 (div (- x_year 1) 400)) ?x1475) (- x_day 1))))
 (= x_epoch (- ?x2155 ?x97)))))))))))))))))))))))))))))))))))))))))
(assert
 (let (($x882 (<= x_shift_period_926964_year 2100)))
 (let (($x2790 (>= x_shift_period_926964_year 1900)))
 (let (($x3977 (= x_shift_period_926964_month 11)))
 (let (($x4221 (= x_shift_period_926964_month 9)))
 (let (($x4033 (= x_shift_period_926964_month 6)))
 (let (($x2922 (= x_shift_period_926964_month 4)))
 (let ((?x3706 (ite (or $x2922 $x4033 $x4221 $x3977) 30 31)))
 (let (($x4757 (= (mod x_shift_period_926964_year 4) 0)))
 (let (($x4377 (= (mod x_shift_period_926964_year 100) 0)))
 (let (($x2213 (= (mod x_shift_period_926964_year 400) 0)))
 (let (($x993 (ite $x2213 true (ite $x4377 false $x4757))))
 (let (($x2482 (= x_shift_period_926964_month 2)))
 (let (($x3026 (>= x_shift_period_926964_day 1)))
 (let (($x1092 (<= x_shift_period_926964_month 12)))
 (let (($x1635 (>= x_shift_period_926964_month 1)))
 (and $x1635 $x1092 $x3026 (<= x_shift_period_926964_day (ite $x2482 (ite $x993 29 28) ?x3706)) $x2790 $x882)))))))))))))))))
(assert
 (let (($x29 (or (and (= (mod 2000 4) 0) (and (distinct (mod 2000 100) 0) true)) (= (mod 2000 400) 0))))
 (let ((?x36 (ite (= 3 2) (ite $x29 31 31) (ite (= 3 1) (ite $x29 0 0) 0))))
 (let ((?x40 (ite $x29 60 59)))
 (let ((?x41 (ite (= 3 3) ?x40 ?x36)))
 (let ((?x46 (ite (= 3 4) (ite $x29 91 90) ?x41)))
 (let ((?x52 (ite (= 3 5) (ite $x29 121 120) ?x46)))
 (let ((?x58 (ite (= 3 6) (ite $x29 152 151) ?x52)))
 (let ((?x64 (ite (= 3 7) (ite $x29 182 181) ?x58)))
 (let ((?x70 (ite (= 3 8) (ite $x29 213 212) ?x64)))
 (let ((?x76 (ite (= 3 9) (ite $x29 244 243) ?x70)))
 (let ((?x82 (ite (= 3 10) (ite $x29 274 273) ?x76)))
 (let ((?x88 (ite (= 3 11) (ite $x29 305 304) ?x82)))
 (let ((?x16 (- (+ (* 365 (- 2000 1)) (div (- 2000 1) 4)) (div (- 2000 1) 100))))
 (let ((?x95 (+ (+ ?x16 (div (- 2000 1) 400)) (ite (= 3 12) (ite $x29 335 334) ?x88))))
 (let ((?x97 (+ ?x95 (- 1 1))))
 (let (($x4757 (= (mod x_shift_period_926964_year 4) 0)))
 (let (($x4377 (= (mod x_shift_period_926964_year 100) 0)))
 (let (($x2213 (= (mod x_shift_period_926964_year 400) 0)))
 (let (($x993 (ite $x2213 true (ite $x4377 false $x4757))))
 (let ((?x3378 (ite (= 1 x_shift_period_926964_month) (ite $x993 0 0) 0)))
 (let ((?x1646 (ite (= 3 x_shift_period_926964_month) (ite $x993 60 59) (ite (= 2 x_shift_period_926964_month) (ite $x993 31 31) ?x3378))))
 (let ((?x928 (ite (= 5 x_shift_period_926964_month) (ite $x993 121 120) (ite (= 4 x_shift_period_926964_month) (ite $x993 91 90) ?x1646))))
 (let ((?x4428 (ite (= 7 x_shift_period_926964_month) (ite $x993 182 181) (ite (= 6 x_shift_period_926964_month) (ite $x993 152 151) ?x928))))
 (let ((?x2606 (ite (= 9 x_shift_period_926964_month) (ite $x993 244 243) (ite (= 8 x_shift_period_926964_month) (ite $x993 213 212) ?x4428))))
 (let ((?x1000 (ite (= 11 x_shift_period_926964_month) (ite $x993 305 304) (ite (= 10 x_shift_period_926964_month) (ite $x993 274 273) ?x2606))))
 (let ((?x3618 (+ (* 365 (- x_shift_period_926964_year 1)) (div (- x_shift_period_926964_year 1) 4))))
 (let ((?x1421 (+ (- ?x3618 (div (- x_shift_period_926964_year 1) 100)) (div (- x_shift_period_926964_year 1) 400))))
 (let ((?x2751 (+ ?x1421 (ite (= 12 x_shift_period_926964_month) (ite $x993 335 334) ?x1000))))
 (= x_shift_period_926964_epoch (- (+ ?x2751 (- x_shift_period_926964_day 1)) ?x97)))))))))))))))))))))))))))))))
(assert
 (let ((?x3347 (+ (+ (* 12 x_year) (- x_month 1)) 1)))
 (let ((?x146 (div ?x3347 12)))
 (= x_shift_period_926964_year ?x146))))
(assert
 (let ((?x2874 (+ (mod (+ (+ (* 12 x_year) (- x_month 1)) 1) 12) 1)))
 (= x_shift_period_926964_month ?x2874)))
(assert
 (let ((?x2874 (+ (mod (+ (+ (* 12 x_year) (- x_month 1)) 1) 12) 1)))
 (let ((?x770 (ite (or (= ?x2874 4) (= ?x2874 6) (= ?x2874 9) (= ?x2874 11)) 30 31)))
 (let ((?x3347 (+ (+ (* 12 x_year) (- x_month 1)) 1)))
 (let ((?x146 (div ?x3347 12)))
 (let (($x1324 (ite (= (mod ?x146 400) 0) true (ite (= (mod ?x146 100) 0) false (= (mod ?x146 4) 0)))))
 (let ((?x1630 (ite (= ?x2874 2) (ite $x1324 29 28) ?x770)))
 (let ((?x1631 (ite (<= x_day ?x1630) x_day ?x1630)))
 (let (($x2089 (= x_month 11)))
 (let (($x4720 (= x_month 9)))
 (let (($x4726 (= x_month 6)))
 (let (($x4696 (= x_month 4)))
 (let ((?x4717 (ite (or $x4696 $x4726 $x4720 $x2089) 30 31)))
 (let (($x4721 (= (mod x_year 4) 0)))
 (let (($x461 (= (mod x_year 100) 0)))
 (let (($x701 (= (mod x_year 400) 0)))
 (let (($x4716 (ite $x701 true (ite $x461 false $x4721))))
 (let (($x107 (= x_month 2)))
 (let ((?x196 (ite $x107 (ite $x4716 29 28) ?x4717)))
 (let ((?x2883 (ite false (ite (= x_day ?x196) ?x1630 ?x1631) ?x1631)))
 (= x_shift_period_926964_day ?x2883)))))))))))))))))))))
(assert
 (>= x_shift_period_926964_shift_period_934031_epoch (- 36584)))
(assert
 (<= x_shift_period_926964_shift_period_934031_epoch 36829))
(assert
 (let (($x727 (<= x_shift_period_926964_shift_period_934031_year 2100)))
 (let (($x4320 (>= x_shift_period_926964_shift_period_934031_year 1900)))
 (let (($x1126 (= x_shift_period_926964_shift_period_934031_month 11)))
 (let (($x3439 (= x_shift_period_926964_shift_period_934031_month 9)))
 (let (($x1745 (= x_shift_period_926964_shift_period_934031_month 6)))
 (let (($x697 (= x_shift_period_926964_shift_period_934031_month 4)))
 (let ((?x4069 (ite (or $x697 $x1745 $x3439 $x1126) 30 31)))
 (let (($x3014 (= (mod x_shift_period_926964_shift_period_934031_year 4) 0)))
 (let (($x1455 (= (mod x_shift_period_926964_shift_period_934031_year 100) 0)))
 (let (($x4740 (= (mod x_shift_period_926964_shift_period_934031_year 400) 0)))
 (let (($x2961 (ite $x4740 true (ite $x1455 false $x3014))))
 (let (($x244 (= x_shift_period_926964_shift_period_934031_month 2)))
 (let (($x4761 (<= x_shift_period_926964_shift_period_934031_day (ite $x244 (ite $x2961 29 28) ?x4069))))
 (let (($x706 (>= x_shift_period_926964_shift_period_934031_day 1)))
 (let (($x545 (<= x_shift_period_926964_shift_period_934031_month 12)))
 (let (($x2034 (>= x_shift_period_926964_shift_period_934031_month 1)))
 (and $x2034 $x545 $x706 $x4761 $x4320 $x727))))))))))))))))))
(assert
 (let (($x29 (or (and (= (mod 2000 4) 0) (and (distinct (mod 2000 100) 0) true)) (= (mod 2000 400) 0))))
 (let ((?x36 (ite (= 3 2) (ite $x29 31 31) (ite (= 3 1) (ite $x29 0 0) 0))))
 (let ((?x40 (ite $x29 60 59)))
 (let ((?x41 (ite (= 3 3) ?x40 ?x36)))
 (let ((?x46 (ite (= 3 4) (ite $x29 91 90) ?x41)))
 (let ((?x52 (ite (= 3 5) (ite $x29 121 120) ?x46)))
 (let ((?x58 (ite (= 3 6) (ite $x29 152 151) ?x52)))
 (let ((?x64 (ite (= 3 7) (ite $x29 182 181) ?x58)))
 (let ((?x70 (ite (= 3 8) (ite $x29 213 212) ?x64)))
 (let ((?x76 (ite (= 3 9) (ite $x29 244 243) ?x70)))
 (let ((?x82 (ite (= 3 10) (ite $x29 274 273) ?x76)))
 (let ((?x88 (ite (= 3 11) (ite $x29 305 304) ?x82)))
 (let ((?x16 (- (+ (* 365 (- 2000 1)) (div (- 2000 1) 4)) (div (- 2000 1) 100))))
 (let ((?x95 (+ (+ ?x16 (div (- 2000 1) 400)) (ite (= 3 12) (ite $x29 335 334) ?x88))))
 (let ((?x97 (+ ?x95 (- 1 1))))
 (let (($x3014 (= (mod x_shift_period_926964_shift_period_934031_year 4) 0)))
 (let (($x1455 (= (mod x_shift_period_926964_shift_period_934031_year 100) 0)))
 (let (($x4740 (= (mod x_shift_period_926964_shift_period_934031_year 400) 0)))
 (let (($x2961 (ite $x4740 true (ite $x1455 false $x3014))))
 (let ((?x3291 (ite (= 1 x_shift_period_926964_shift_period_934031_month) (ite $x2961 0 0) 0)))
 (let ((?x1624 (ite (= 2 x_shift_period_926964_shift_period_934031_month) (ite $x2961 31 31) ?x3291)))
 (let ((?x3251 (ite (= 3 x_shift_period_926964_shift_period_934031_month) (ite $x2961 60 59) ?x1624)))
 (let ((?x263 (ite (= 4 x_shift_period_926964_shift_period_934031_month) (ite $x2961 91 90) ?x3251)))
 (let ((?x4312 (ite (= 5 x_shift_period_926964_shift_period_934031_month) (ite $x2961 121 120) ?x263)))
 (let ((?x4325 (ite (= 6 x_shift_period_926964_shift_period_934031_month) (ite $x2961 152 151) ?x4312)))
 (let ((?x1882 (ite (= 7 x_shift_period_926964_shift_period_934031_month) (ite $x2961 182 181) ?x4325)))
 (let ((?x3377 (ite (= 8 x_shift_period_926964_shift_period_934031_month) (ite $x2961 213 212) ?x1882)))
 (let ((?x3080 (ite (= 9 x_shift_period_926964_shift_period_934031_month) (ite $x2961 244 243) ?x3377)))
 (let ((?x2161 (ite (= 10 x_shift_period_926964_shift_period_934031_month) (ite $x2961 274 273) ?x3080)))
 (let ((?x1615 (ite (= 11 x_shift_period_926964_shift_period_934031_month) (ite $x2961 305 304) ?x2161)))
 (let ((?x2390 (ite (= 12 x_shift_period_926964_shift_period_934031_month) (ite $x2961 335 334) ?x1615)))
 (let ((?x4452 (+ (* 365 (- x_shift_period_926964_shift_period_934031_year 1)) (div (- x_shift_period_926964_shift_period_934031_year 1) 4))))
 (let ((?x1452 (- ?x4452 (div (- x_shift_period_926964_shift_period_934031_year 1) 100))))
 (let ((?x3800 (+ ?x1452 (div (- x_shift_period_926964_shift_period_934031_year 1) 400))))
 (let ((?x4160 (+ (+ ?x3800 ?x2390) (- x_shift_period_926964_shift_period_934031_day 1))))
 (= x_shift_period_926964_shift_period_934031_epoch (- ?x4160 ?x97))))))))))))))))))))))))))))))))))))))
(assert
 (= x_shift_period_926964_shift_period_934031_epoch (+ x_shift_period_926964_epoch 15)))
(assert
 (= x_shift_period_926964_shift_period_934031_epoch y_epoch))
(assert
 (>= y_epoch 8492))
(check-sat)
